&DOS
    prefix  = 'DOS'
    Emin = -8.50, Emax = 0.50
    fildos = 'Si.dos.dat'
    outdir = './tmp/'
/

