&control
    calculation = 'scf'
    restart_mode='from_scratch',
    prefix='DOS',
    tstress = .true.
    tprnfor = .true.
    pseudo_dir = './pseudos/',
    outdir='./tmp/'
 /
 &system
    ibrav=  0, nat=  16, ntyp= 1,
    ecutwfc =30,
 /
 &electrons
    mixing_mode = 'plain'
    mixing_beta = 0.7
    conv_thr =  1.0d-8
 /
ATOMIC_SPECIES
 Si  28.086  Si.pbesol-n-rrkjus_psl.1.0.0.UPF
CELL_PARAMETERS angstrom
        5.4759000000         5.4759000000         0.0000000000
        0.0000000000         5.4759000000         5.4759000000
        5.4759000000         0.0000000000         5.4759000000

ATOMIC_POSITIONS crystal
Si   0.00000    0.00000    0.00000 
Si   0.12500    0.12500    0.12500 
Si   0.50000    0.00000    0.00000 
Si   0.62500    0.12500    0.12500 
Si   0.00000    0.50000    0.00000 
Si   0.12500    0.62500    0.12500 
Si   0.50000    0.50000    0.00000 
Si   0.62500    0.62500    0.12500 
Si   0.00000    0.00000    0.50000 
Si   0.12500    0.12500    0.62500 
Si   0.50000    0.00000    0.50000 
Si   0.62500    0.12500    0.62500 
Si   0.00000    0.50000    0.50000 
Si   0.12500    0.62500    0.62500 
Si   0.50000    0.50000    0.50000 
Si   0.62500    0.62500    0.62500
K_POINTS {automatic}
8 8 8 0 0 0

