&bands
    prefix  = 'unitcell'
    filband = 'unitcellbands.dat'
    outdir = './'
 /
