&control
    calculation = 'nscf'
    restart_mode='from_scratch',
    prefix='unitcell',
    tstress = .true.
    tprnfor = .true.
    pseudo_dir = './',
    outdir='./'
 /
 &system
    ibrav= 0, nat= 8, ntyp= 1,
    ecutwfc =30.0,nbnd = 25,
 /
 &electrons
    mixing_mode = 'plain'
    mixing_beta = 0.7
    conv_thr =  1.0d-8
 /
ATOMIC_SPECIES
 Si  28.086  Si.pbesol-n-rrkjus_psl.1.0.0.UPF
CELL_PARAMETERS angstrom
	  5.4759257550      0.0000000000     0.0000000000
 	  0.0000000000      5.4759257550     0.0000000000
  	  0.0000000000      0.0000000000     5.4759257550

ATOMIC_POSITIONS crystal
   Si     0.000000000   0.000000000   0.000000000
   Si     0.500000000   0.000000000   0.500000000
   Si     0.750000000   0.250000000   0.750000000
   Si     0.250000000   0.250000000   0.250000000
   Si     0.500000000   0.500000000   0.000000000
   Si     0.000000000   0.500000000   0.500000000
   Si     0.250000000   0.750000000   0.750000000
   Si     0.750000000   0.750000000   0.250000000
K_POINTS tpiba
 36
   0.5 0.5 0.5  1
   0.4 0.4 0.4  2
   0.3 0.3 0.3  3
   0.2 0.2 0.2  4
   0.1 0.1 0.1  5
   0.0 0.0 0.0  6
   0.0 0.0 0.1  7
   0.0 0.0 0.2  8
   0.0 0.0 0.3  9
   0.0 0.0 0.4 10
   0.0 0.0 0.5 11
   0.0 0.0 0.6 12
   0.0 0.0 0.7 13
   0.0 0.0 0.8 14
   0.0 0.0 0.9 15
   0.0 0.0 1.0 16
   0.0 0.1 1.0 17
   0.0 0.2 1.0 18
   0.0 0.3 1.0 19
   0.0 0.4 1.0 20
   0.0 0.5 1.0 21
   0.0 0.6 1.0 22
   0.0 0.7 1.0 23
   0.0 0.8 1.0 24
   0.0 0.9 1.0 25
   0.0 1.0 1.0 26
   0.0 0.9 0.9 27
   0.0 0.8 0.8 28
   0.0 0.7 0.7 29
   0.0 0.6 0.6 30
   0.0 0.5 0.5 31
   0.0 0.4 0.4 32
   0.0 0.3 0.3 33
   0.0 0.2 0.2 34
   0.0 0.1 0.1 35
   0.0 0.0 0.0 36

