&BANDS
  prefix = 'NiO'
  outdir = './tmp/'
  filband = 'Nio.bands.dat'
/
