&control
    calculation='scf',
    pseudo_dir = './pseudos/',
    outdir='./tmp/',
    prefix='NiO',
    tprnfor   = .true.,
 /
 &system
    ibrav = 5,
    celldm(1) =9.67155, celldm(4)=0.8333333333,
    nat = 4,
    ntyp = 3,
    nspin = 2,
    ecutwfc = 50.0, ecutrho = 500,
    starting_magnetization(1) =  0.2,
    starting_magnetization(2) = -0.2,
    occupations = 'smearing'
    smearing = 'mv',
    degauss =   0.02,
 /
 &electrons
    mixing_beta = 0.3,
 /
ATOMIC_SPECIES
Ni1  58.6934   ni_pbesol_v1.4.uspp.F.UPF
Ni2  58.6934   ni_pbesol_v1.4.uspp.F.UPF
O  15.9994   O.pbesol-n-kjpaw_psl.0.1.UPF
ATOMIC_POSITIONS crystal
Ni1  0.0000000000  0.0000000000  0.0000000000
Ni2  -.5000000000  1.5000000000  -0.5000000000
O  0.7500000000  -0.2500000000  -0.2500000000
O  -0.7500000000  0.2500000000  0.2500000000
K_POINTS automatic
4 4 4 0 0 0
HUBBARD {ortho-atomic}
U Ni1-3d 7.6
U Ni2-3d 7.6
