&control
    calculation = 'scf'
    restart_mode='from_scratch',
    prefix='silicon',
    tstress = .true.
    tprnfor = .true.
    pseudo_dir = './',
    outdir='./'
 /
 &system
    ibrav= 1, celldm(1)=50.00, nat= 1 , ntyp= 1,
    ecutwfc =35.0,occupations = "smearing",degauss = 0.001

 /
 &electrons
    mixing_mode = 'plain'
    mixing_beta = 0.7
    conv_thr =  1.0d-8
 /
ATOMIC_SPECIES
 Si  28.086  Si.pbesol-n-rrkjus_psl.1.0.0.UPF
ATOMIC_POSITIONS alat
 Si 0.00 0.00 0.00
K_POINTS gamma
