&DOS
    prefix='NiO'
    outdir='./tmp/'
    fildos='Nio.dos.dat'
    emin=5
    emax=25
/

