&bands
# should have same prefix
    prefix  = 'silicon'
    filband = 'si.bands.dat'
    outdir = './'
 /
