&bands
  outdir='./tmp/'
  prefix='NiO',
  filband = 'NiO.bandsup.dat',
  spin_component = 1,
/
