&control
    calculation = 'scf'
    restart_mode='from_scratch',
    prefix='supercell',
    tstress = .true.
    tprnfor = .true.
    pseudo_dir = './',
    outdir='./'
 /
 &system
    ibrav= 0, nat= 16, ntyp= 1,
    ecutwfc =30.0,
 /
 &electrons
    mixing_mode = 'plain'
    mixing_beta = 0.7
    conv_thr =  1.0d-8
 /
ATOMIC_SPECIES
 Si  28.086  Si.pbesol-n-rrkjus_psl.1.0.0.UPF
CELL_PARAMETERS angstrom
        5.4759000000         5.4759000000         0.0000000000
        0.0000000000         5.4759000000         5.4759000000
        5.4759000000         0.0000000000         5.4759000000
ATOMIC_POSITIONS crystal
   Si    0.000000000         0.000000000         0.000000000
   Si    0.000000000         0.000000000         0.500000000
   Si    0.000000000         0.500000000         0.000000000
   Si    0.000000000         0.500000000         0.500000000
   Si    0.500000000         0.000000000         0.000000000
   Si    0.500000000         0.000000000         0.500000000
   Si    0.500000000         0.500000000         0.000000000
   Si    0.500000000         0.500000000         0.500000000
   Si    0.125000000         0.125000000         0.125000000
   Si    0.125000000         0.125000000         0.625000000
   Si    0.125000000         0.625000000         0.125000000
   Si    0.125000000         0.625000000         0.625000000
   Si    0.625000000         0.125000000         0.125000000
   Si    0.625000000         0.125000000         0.625000000
   Si    0.625000000         0.625000000         0.125000000
   Si    0.625000000         0.625000000         0.625000000
K_POINTS automatic
 8 8 8 0 0 0

