&DOS
    prefix='NiO'
    outdir='./tmp/'
    fildos='Nio.dos.dat'
    emin=-10
    emax=40
/

