&control
    calculation = 'scf'
    restart_mode='from_scratch',
    prefix='333supercell',
    tstress = .true.
    tprnfor = .true.
    pseudo_dir = './',
    outdir='./'
 /
 &system
    ibrav= 0, nat= 54, ntyp= 1,
    ecutwfc =30.0,
 /
 &electrons
    mixing_mode = 'plain'
    mixing_beta = 0.7
    conv_thr =  1.0d-8
 /
ATOMIC_SPECIES
 Si  28.086  Si.pbesol-n-rrkjus_psl.1.0.0.UPF
CELL_PARAMETERS angstrom
        8.2138500000         8.2138500000         0.0000000000
        0.0000000000         8.2138500000         8.21385000000
        8.2138500000         0.0000000000         8.2138500000
ATOMIC_POSITIONS (crystal)
Si            0.0000000000        0.0000000000        0.0000000000
Si            0.0000000000        0.0000000000        0.3333333330
Si            0.0000000000        0.0000000000        0.6666666670
Si            0.0000000000        0.3333333330        0.0000000000
Si            0.0000000000        0.3333333330        0.3333333330
Si            0.0000000000        0.3333333330        0.6666666670
Si            0.0000000000        0.6666666670        0.0000000000
Si            0.0000000000        0.6666666670        0.3333333330
Si            0.0000000000        0.6666666670        0.6666666670
Si            0.3333333330        0.0000000000        0.0000000000
Si            0.3333333330        0.0000000000        0.3333333330
Si            0.3333333330        0.0000000000        0.6666666670
Si            0.3333333330        0.3333333330        0.0000000000
Si            0.3333333330        0.3333333330        0.3333333330
Si            0.3333333330        0.3333333330        0.6666666670
Si            0.3333333330        0.6666666670        0.0000000000
Si            0.3333333330        0.6666666670        0.3333333330
Si            0.3333333330        0.6666666670        0.6666666670
Si            0.6666666670        0.0000000000        0.0000000000
Si            0.6666666670        0.0000000000        0.3333333330
Si            0.6666666670        0.0000000000        0.6666666670
Si            0.6666666670        0.3333333330        0.0000000000
Si            0.6666666670        0.3333333330        0.3333333330
Si            0.6666666670        0.3333333330        0.6666666670
Si            0.6666666670        0.6666666670        0.0000000000
Si            0.6666666670        0.6666666670        0.3333333330
Si            0.6666666670        0.6666666670        0.6666666670
Si            0.0833333330        0.0833333330        0.0833333330
Si            0.0833333330        0.0833333330        0.4166666670
Si            0.0833333330        0.0833333330        0.7500000000
Si            0.0833333330        0.4166666670        0.0833333330
Si            0.0833333330        0.4166666670        0.4166666670
Si            0.0833333330        0.4166666670        0.7500000000
Si            0.0833333330        0.7500000000        0.0833333330
Si            0.0833333330        0.7500000000        0.4166666670
Si            0.0833333330        0.7500000000        0.7500000000
Si            0.4166666670        0.0833333330        0.0833333330
Si            0.4166666670        0.0833333330        0.4166666670
Si            0.4166666670        0.0833333330        0.7500000000
Si            0.4166666670        0.4166666670        0.0833333330
Si            0.4166666670        0.4166666670        0.4166666670
Si            0.4166666670        0.4166666670        0.7500000000
Si            0.4166666670        0.7500000000        0.0833333330
Si            0.4166666670        0.7500000000        0.4166666670
Si            0.4166666670        0.7500000000        0.7500000000
Si            0.7500000000        0.0833333330        0.0833333330
Si            0.7500000000        0.0833333330        0.4166666670
Si            0.7500000000        0.0833333330        0.7500000000
Si            0.7500000000        0.4166666670        0.0833333330
Si            0.7500000000        0.4166666670        0.4166666670
Si            0.7500000000        0.4166666670        0.7500000000
Si            0.7500000000        0.7500000000        0.0833333330
Si            0.7500000000        0.7500000000        0.4166666670
Si            0.7500000000        0.7500000000        0.7500000000
K_POINTS automatic
 4 4 4 0 0 0
