&control
    calculation = 'relax'
    restart_mode='from_scratch',
    prefix='333defect',
    tstress = .true.
    tprnfor = .true.
    pseudo_dir = './',
    outdir='./'
 /
 &system
    ibrav= 0, nat= 53, ntyp= 1,
    ecutwfc =30.0,
 /
 &electrons
    mixing_mode = 'plain'
    mixing_beta = 0.7
    conv_thr =  1.0d-8
 /
 &IONS
 /
ATOMIC_SPECIES
 Si  28.086  Si.pbesol-n-rrkjus_psl.1.0.0.UPF
CELL_PARAMETERS angstrom
        8.2138500000         8.2138500000         0.0000000000
        0.0000000000         8.2138500000         8.21385000000
        8.2138500000         0.0000000000         8.2138500000
ATOMIC_POSITIONS crystal
Si   0.000000000         0.000000000         0.000000000
Si   0.000000000         0.000000000         0.333333333
Si   0.000000000         0.000000000         0.666666667
Si   0.000000000         0.333333333         0.000000000
Si   0.000000000         0.333333333         0.333333333
Si   0.000000000         0.333333333         0.666666667
Si   0.000000000         0.666666667         0.000000000
Si   0.000000000         0.666666667         0.333333333
Si   0.000000000         0.666666667         0.666666667
Si   0.333333333         0.000000000         0.000000000
Si   0.333333333         0.000000000         0.333333333
Si   0.333333333         0.000000000         0.666666667
Si   0.333333333         0.333333333         0.000000000
Si   0.333333333         0.333333333         0.333333333
Si   0.333333333         0.333333333         0.666666667
Si   0.333333333         0.666666667         0.000000000
Si   0.333333333         0.666666667         0.333333333
Si   0.333333333         0.666666667         0.666666667
Si   0.666666667         0.000000000         0.333333333
Si   0.666666667         0.000000000         0.666666667
Si   0.666666667         0.333333333         0.000000000
Si   0.666666667         0.333333333         0.333333333
Si   0.666666667         0.333333333         0.666666667
Si   0.666666667         0.666666667         0.000000000
Si   0.666666667         0.666666667         0.333333333
Si   0.666666667         0.666666667         0.666666667
Si   0.083333333         0.083333333         0.083333333
Si   0.083333333         0.083333333         0.416666667
Si   0.083333333         0.083333333         0.750000000
Si   0.083333333         0.416666667         0.083333333
Si   0.083333333         0.416666667         0.416666667
Si   0.083333333         0.416666667         0.750000000
Si   0.083333333         0.750000000         0.083333333
Si   0.083333333         0.750000000         0.416666667
Si   0.083333333         0.750000000         0.750000000
Si   0.416666667         0.083333333         0.083333333
Si   0.416666667         0.083333333         0.416666667
Si   0.416666667         0.083333333         0.750000000
Si   0.416666667         0.416666667         0.083333333
Si   0.416666667         0.416666667         0.416666667
Si   0.416666667         0.416666667         0.750000000
Si   0.416666667         0.750000000         0.083333333
Si   0.416666667         0.750000000         0.416666667
Si   0.416666667         0.750000000         0.750000000
Si   0.750000000         0.083333333         0.083333333
Si   0.750000000         0.083333333         0.416666667
Si   0.750000000         0.083333333         0.750000000
Si   0.750000000         0.416666667         0.083333333
Si   0.750000000         0.416666667         0.416666667
Si   0.750000000         0.416666667         0.750000000
Si   0.750000000         0.750000000         0.083333333
Si   0.750000000         0.750000000         0.416666667
Si   0.750000000         0.750000000         0.750000000
K_POINTS automatic
 4 4 4 0 0 0
