&control
    calculation = 'scf'
    restart_mode='from_scratch',
    prefix='333defect',
    tstress = .true.
    tprnfor = .true.
    pseudo_dir = './',
    outdir='./'
 /
 &system
    ibrav= 0, nat= 53, ntyp= 1,
    ecutwfc =30.0,
 /
 &electrons
    mixing_mode = 'plain'
    mixing_beta = 0.7
    conv_thr =  1.0d-8
 /
ATOMIC_SPECIES
 Si  28.086  Si.pbesol-n-rrkjus_psl.1.0.0.UPF
CELL_PARAMETERS angstrom
        8.2138500000         8.2138500000         0.0000000000
        0.0000000000         8.2138500000         8.21385000000
        8.2138500000         0.0000000000         8.2138500000
ATOMIC_POSITIONS crystal
Si           -0.0029857281       -0.0000461250       -0.0000461250
Si            0.0001516931       -0.0004550793        0.3334850261
Si           -0.0029857281       -0.0000461250        0.6697446450
Si            0.0001516931        0.3334850261       -0.0004550793
Si            0.0001516931        0.3334850261        0.3334850261
Si           -0.0002110729        0.3331222601        0.6668777399
Si           -0.0029857281        0.6697446450       -0.0000461250
Si           -0.0002110729        0.6668777399        0.3331222601
Si           -0.0002110729        0.6668777399        0.6668777399
Si            0.3364113110       -0.0000461250       -0.0000461250
Si            0.3364113110       -0.0000461250        0.3303476049
Si            0.3334161786       -0.0002485368        0.6667495126
Si            0.3364113110        0.3303476049       -0.0000461250
Si            0.3335444059        0.3331222601        0.3331222601
Si            0.3335444059        0.3331222601        0.6668777399
Si            0.3334161786        0.6667495126       -0.0002485368
Si            0.3335444059        0.6668777399        0.3331222601
Si            0.3334161786        0.6667495126        0.6667495126
Si            0.6666205420       -0.0000461250        0.3303476049
Si            0.6666205420       -0.0000461250        0.6697446450
Si            0.6666205420        0.3303476049       -0.0000461250
Si            0.6662115877        0.3334850261        0.3334850261
Si            0.6666205420        0.3303476049        0.6697446450
Si            0.6666205420        0.6697446450       -0.0000461250
Si            0.6666205420        0.6697446450        0.3303476049
Si            0.6664181302        0.6667495126        0.6667495126
Si            0.0833388087        0.0833278573        0.0833278573
Si            0.0833388087        0.0833278573        0.4166721427
Si            0.0832427639        0.0831175018        0.7501532001
Si            0.0833388087        0.4166721427        0.0833278573
Si            0.0835506315        0.4168839655        0.4168839655
Si            0.0835506315        0.4168839655        0.7493481045
Si            0.0832427639        0.7501532001        0.0831175018
Si            0.0835506315        0.7493481045        0.4168839655
Si            0.0832427639        0.7501532001        0.7501532001
Si            0.4247855373        0.0806270429        0.0806270429
Si            0.4168198671        0.0831175018        0.4165760979
Si            0.4168198671        0.0831175018        0.7501532001
Si            0.4168198671        0.4165760979        0.0831175018
Si            0.4160147715        0.4168839655        0.4168839655
Si            0.4168198671        0.4165760979        0.7501532001
Si            0.4168198671        0.7501532001        0.0831175018
Si            0.4168198671        0.7501532001        0.4165760979
Si            0.4166666670        0.7500000000        0.7500000000
Si            0.7472937099        0.0806270429        0.0806270429
Si            0.7499945243        0.0833278573        0.4166721427
Si            0.7472937099        0.0806270429        0.7581188703
Si            0.7499945243        0.4166721427        0.0833278573
Si            0.7499945243        0.4166721427        0.4166721427
Si            0.7497841688        0.4165760979        0.7501532001
Si            0.7472937099        0.7581188703        0.0806270429
Si            0.7497841688        0.7501532001        0.4165760979
Si            0.7497841688        0.7501532001        0.7501532001
K_POINTS automatic
 4 4 4 0 0 0

