&DOS
# keep the prefix same
  prefix='si_dos',
  outdir='./',
  fildos='si_dos.dat',
  emin=-9.0,
  emax=16.0
/
